cases/pglib-opf/pglib_opf_case57_ieee.m
ipopt
DCP
[info | PowerModels]: removing 3 cost terms from generator 4: Float64[]
[info | PowerModels]: removing 1 cost terms from generator 1: [1696.0624, 0.0]
[info | PowerModels]: removing 1 cost terms from generator 5: [3044.1037, 0.0]
[info | PowerModels]: removing 3 cost terms from generator 2: Float64[]
[info | PowerModels]: removing 3 cost terms from generator 6: Float64[]
[info | PowerModels]: removing 1 cost terms from generator 7: [3718.8979000000004, 0.0]
[info | PowerModels]: removing 1 cost terms from generator 3: [3407.5557000000003, 0.0]

******************************************************************************
This program contains Ipopt, a library for large-scale nonlinear optimization.
 Ipopt is released as open source code under the Eclipse Public License (EPL).
         For more information visit http://projects.coin-or.org/Ipopt
******************************************************************************

This is Ipopt version 3.13.2, running with linear solver mumps.
NOTE: Other linear solvers might be more efficient (see Ipopt documentation).

Number of nonzeros in equality constraint Jacobian...:      405
Number of nonzeros in inequality constraint Jacobian.:      312
Number of nonzeros in Lagrangian Hessian.............:        0

Total number of variables............................:      141
                     variables with only lower bounds:        0
                variables with lower and upper bounds:       84
                     variables with only upper bounds:        0
Total number of equality constraints.................:      138
Total number of inequality constraints...............:      156
        inequality constraints with only lower bounds:       78
   inequality constraints with lower and upper bounds:        0
        inequality constraints with only upper bounds:       78

iter    objective    inf_pr   inf_du lg(mu)  ||d||  lg(rg) alpha_du alpha_pr  ls
   0  1.0503586e+02 3.76e+00 2.36e+01  -1.0 0.00e+00    -  0.00e+00 0.00e+00   0
   1  1.0541344e+04 2.66e+00 1.23e+02  -1.0 3.77e+00    -  2.69e-03 2.91e-01h  1
   2  9.2526743e+03 2.58e+00 1.19e+02  -1.0 3.45e+01    -  4.29e-02 3.31e-02f  1
   3  1.0400871e+04 2.43e+00 1.13e+02  -1.0 5.56e+00    -  4.84e-02 5.50e-02h  1
   4  1.2001319e+04 2.26e+00 1.04e+02  -1.0 1.56e+01    -  9.07e-02 7.32e-02h  1
   5  3.4847580e+04 8.88e-16 1.17e+01  -1.0 7.31e+00    -  6.34e-01 1.00e+00h  1
   6  3.4781508e+04 1.78e-15 1.05e+00  -1.0 3.37e-01    -  1.00e+00 5.48e-01f  1
   7  3.4784527e+04 1.33e-15 1.00e-06  -1.0 9.66e-03    -  1.00e+00 1.00e+00f  1
   8  3.4773180e+04 8.88e-16 1.17e-02  -2.5 1.44e-02    -  1.00e+00 9.89e-01f  1
   9  3.4772965e+04 1.33e-15 1.50e-09  -3.8 1.42e-04    -  1.00e+00 1.00e+00f  1
iter    objective    inf_pr   inf_du lg(mu)  ||d||  lg(rg) alpha_du alpha_pr  ls
  10  3.4772948e+04 8.88e-16 1.84e-11  -5.7 1.91e-05    -  1.00e+00 1.00e+00f  1
  11  3.4772948e+04 8.88e-16 2.51e-14  -8.6 2.38e-07    -  1.00e+00 1.00e+00f  1

Number of Iterations....: 11

                                   (scaled)                 (unscaled)
Objective...............:   9.3503367896897714e+02    3.4772947851470039e+04
Dual infeasibility......:   2.5059036063649481e-14    9.3191996593130322e-13
Constraint violation....:   8.8817841970012523e-16    8.8817841970012523e-16
Complementarity.........:   2.5068470617803016e-09    9.3227082736759354e-08
Overall NLP error.......:   2.5068470617803016e-09    9.3227082736759354e-08


Number of objective function evaluations             = 12
Number of objective gradient evaluations             = 12
Number of equality constraint evaluations            = 12
Number of inequality constraint evaluations          = 12
Number of equality constraint Jacobian evaluations   = 1
Number of inequality constraint Jacobian evaluations = 1
Number of Lagrangian Hessian evaluations             = 1
Total CPU secs in IPOPT (w/o function evaluations)   =      0.244
Total CPU secs in NLP function evaluations           =      0.208

EXIT: Optimal Solution Found.
Time to Solution........:1.1181361675262451
